Minimize
  - 43 y_0 - 26 y_2 - 41 y_3 - 49 y_4 - 42 y_5 - 49 y_6 - 51 y_7 - 52 y_8
   - 28 y_9 + 83 x_0_3 + 14 x_0_4 + 9 x_0_5 + 73 x_0_6 + 98 x_1_6
   + 104 x_1_8 + 56 x_1_9 + 75 x_2_5 + 48 x_2_6 + 54 x_2_9 + 84 x_3_4
   + 90 x_3_5 + 26 x_3_6 + 69 x_3_7 + 97 x_3_8 + 22 x_4_7 + 43 x_4_9
   + 40 x_5_7 + 51 x_6_7 + 77 x_6_9 + 34 x_7_8 + 53 x_7_9 + 48 x_8_9
   + 381 Constant
Subject To
 c_0: y_2 = 1
 c_1_0: y_0 >= 1
 c_1_1: y_1 >= 1
 c_1_2: y_2 >= 1
 c_1_3: y_3 >= 1
 c_1_4: y_4 >= 1
 c_1_5: y_5 >= 1
 c_1_6: y_6 >= 1
 c_1_7: y_7 >= 1
 c_1_8: y_8 >= 1
 c_1_9: y_9 >= 1
 c_2_0: - 2 y_0 + x_0_3 + x_0_4 + x_0_5 + x_0_6 = 0
 c_2_1: - 2 y_1 + x_1_6 + x_1_8 + x_1_9 = 0
 c_2_2: - 2 y_2 + x_2_5 + x_2_6 + x_2_9 = 0
 c_2_3: - 2 y_3 + x_0_3 + x_3_4 + x_3_5 + x_3_6 + x_3_7 + x_3_8 = 0
 c_2_4: - 2 y_4 + x_0_4 + x_3_4 + x_4_7 + x_4_9 = 0
 c_2_5: - 2 y_5 + x_0_5 + x_2_5 + x_3_5 + x_5_7 = 0
 c_2_6: - 2 y_6 + x_0_6 + x_1_6 + x_2_6 + x_3_6 + x_6_7 + x_6_9 = 0
 c_2_7: - 2 y_7 + x_3_7 + x_4_7 + x_5_7 + x_6_7 + x_7_8 + x_7_9 = 0
 c_2_8: - 2 y_8 + x_1_8 + x_3_8 + x_7_8 + x_8_9 = 0
 c_2_9: - 2 y_9 + x_1_9 + x_2_9 + x_4_9 + x_6_9 + x_7_9 + x_8_9 = 0
Bounds
 Constant = 1
Binaries
 y_0 y_1 y_2 y_3 y_4 y_5 y_6 y_7 y_8 y_9 x_0_3 x_0_4 x_0_5 x_0_6 x_1_6
 x_1_8 x_1_9 x_2_5 x_2_6 x_2_9 x_3_4 x_3_5 x_3_6 x_3_7 x_3_8 x_4_7 x_4_9
 x_5_7 x_6_7 x_6_9 x_7_8 x_7_9 x_8_9
End
